VACCINE = Vaccine(1..2);
m = 24;
age = [SENIOR, SENIOR, CHILD, BABY, ADULT, YOUTH, SENIOR, SENIOR, AGED, YOUTH, SENIOR, YOUTH, ANCIENT, BABY, ADULT, ANCIENT, ANCIENT, CHILD, CHILD, YOUTH, ANCIENT, SENIOR, CHILD, ANCIENT];
gender = [FEMALE, MALE, FEMALE, OTHER, MALE, MALE, OTHER, OTHER, OTHER, MALE, OTHER, FEMALE, FEMALE, FEMALE, MALE, MALE, MALE, MALE, MALE, FEMALE, OTHER, MALE, FEMALE, OTHER];
health = [POOR, POOR, COMPROMISED, POOR, POOR, POOR, GOOD, POOR, GOOD, POOR, COMPROMISED, GOOD, POOR, COMPROMISED, COMPROMISED, COMPROMISED, POOR, GOOD, COMPROMISED, COMPROMISED, POOR, GOOD, COMPROMISED, COMPROMISED];
exposure = [LOW, LOW, HIGH, LOW, LOW, EXTREME, AVERAGE, LOW, EXTREME, HIGH, HIGH, EXTREME, LOW, LOW, AVERAGE, EXTREME, LOW, AVERAGE, LOW, HIGH, EXTREME, EXTREME, EXTREME, AVERAGE];
size = [12, 9, 8, 8, 10, 10, 11, 9, 12, 13, 10, 13, 11, 11, 9, 11, 10, 12, 9, 12, 9, 10, 10, 11];
minsize = 8;
age_group_min = [0, 1, 1, 0, 1, 0, 0];
age_group_max = [22, 23, 18, 18, 11, 12, 19];
max_people_diff = 25;
max_share_vaccines = 2;
health_information = {6, 10, 12};
exposure_information = {5, 6, 9, 22};